15
2 0 3
2 1 7
3 0 4
3 1 4
3 2 1
4 2 1
5 0 7
5 4 6
6 3 2
7 0 5
7 2 7
7 5 6
7 6 7
8 0 2
8 1 1
8 4 2
8 5 3
8 7 5
9 1 6
9 2 6
9 5 8
9 7 5
10 1 2
10 2 7
10 6 5
10 7 5
11 1 5
11 3 8
11 4 8
11 6 1
11 7 3
11 8 6
11 9 4
11 10 3
12 0 3
12 1 5
12 4 6
12 6 1
12 7 6
12 9 5
12 10 1
13 0 8
13 1 1
13 6 5
13 9 2
14 0 6
14 5 2
14 7 5
14 10 8
14 11 3
14 12 2
